0 0 0 1 0 0 0 0 1 1 1 1 
0 33 17 37 45 15 23 17 22 20 5 40 
33 0 9 37 7 44 26 42 4 41 47 41 
17 9 0 48 44 48 20 35 41 21 4 16 
37 37 48 0 34 36 46 39 13 23 11 28 
45 7 44 34 0 41 28 5 28 43 39 17 
15 44 48 36 41 0 47 35 37 27 37 31 
23 26 20 46 28 47 0 23 33 7 21 39 
17 42 35 39 5 35 23 0 31 39 25 9 
22 4 41 13 28 37 33 31 0 43 12 19 
20 41 21 23 43 27 7 39 43 0 12 18 
5 47 4 11 39 37 21 25 12 12 0 37 
40 41 16 28 17 31 39 9 19 18 37 0 
7 3
1B 6B 10P 7B 3B 12P 8B 5B 2B 9P 4P 11P = 139